334805.91,13.85,15.17
327930.04,14.14,15.49
321177.61,14.44,15.82
326342.39,14.21,15.57
327674.71,14.15,15.5
326105.84,14.22,15.58
324514.95,14.29,15.65
323521.61,14.34,15.7
339009.18,13.68,14.98
322581.28,14.38,15.75
329190.18,14.09,15.43
327064.94,14.18,15.53
331690.03,13.98,15.32
314296.38,14.76,16.16
308456.09,15.04,16.47
330051.43,14.05,15.39
312328.33,14.85,16.26
322223.6,14.39,15.77
331542.85,13.99,15.32
327432.54,14.16,15.51
